129	32	4	69	
10	10	10	10

0	0	0	0	0	0	4	1	5	20	30
1	1	0	1	1	2	2	11	2
2	0	1	2	5	7	1	3
3	0	4	4	3	1	1	4
4	0	4	2	5	9	1	6
5	0	2	5	5	4	1	7
6	0	5	6	5	3	3	29	15	8
7	6	2	0	4	4	3	29	15	8
8	3	6	0	5	2	2	19	9
9	5	0	3	4	10	3	28	27	10
10	2	3	0	5	2	2	17	12
11	7	0	7	5	3	1	12
12	6	0	2	4	2	3	26	25	13
13	4	5	0	3	2	3	24	23	14
14	6	2	4	0	5	1	16
15	2	8	5	0	7	1	16
16	4	3	5	0	6	1	18
17	4	8	3	0	3	2	23	22
18	7	6	6	0	9	1	21
19	5	1	3	0	3	1	21
20	5	4	5	0	1	1	21
21	3	0	6	3	1	1	22
22	0	2	4	4	4	1	31
23	3	4	0	3	5	1	31
24	5	2	0	3	9	1	31
25	4	5	6	0	5	1	31
26	3	0	6	3	6	1	31
27	0	6	1	3	1	1	31
28	3	5	4	0	1	1	31
29	2	0	1	6	5	1	31
30	2	0	5	5	7	1	31
31	0	0	0	0	0	0
